DATASET = "thpack3";
INSTANCE = "010";

WIDTH = 233;
HEIGHT = 220;
LENGTH = 587;

NO_OF_SHAPES = 8;
size = [|
  68,66,31 |
  120,34,26 |
  95,76,60 |
  61,47,34 |
  53,45,36 |
  80,52,42 |
  109,63,28 |
  74,64,35 |
|];

verticality = [|
  0,0,1 |
  0,1,1 |
  1,1,1 |
  1,1,1 |
  1,1,1 |
  1,1,1 |
  0,0,1 |
  0,1,1 |
|];

box_count = [
  18,
  27,
  17,
  19,
  25,
  22,
  22,
  30,
];
